NAME : morphed18-5-26
COMMENT : Generated using the function morphInstances from the R-package netgen (Bossek,2015) - Number of clusters: 5 Alpha: 0.5
TYPE : TSP
DIMENSION : 18
EDGE_WEIGHT_TYPE : EUC_2D
NODE_COORD_SECTION
1 6.1290443427 62.7457573031
2 27.0713016221 84.1420626623
3 87.2976382671 52.0184470072
4 77.5778059199 51.5637853624
5 41.9625410173 38.63736316
6 57.6277878329 36.0698598263
7 82.9946327281 15.5864686128
8 64.3577257733 72.2884349554
9 32.929389633 98.7162355192
10 63.6463907213 79.280360279
11 61.633729138 45.5106786158
12 17.7253163615 42.6044152452
13 51.5649208942 78.7260612011
14 1.2703815573 44.0458150923
15 79.0090675753 39.4874299685
16 56.3858821939 6.8275636825
17 57.7306472108 15.6909272199
18 38.6807590367 96.1809275654
EOF
